3
50
11925
[[ 67,258,187,950,394,339,668,450,138,543,128,  6,475,293,240,413,545,920, 47,442,302,107,527,859,680,478,905,954,388,571,183,801,946,621,466,983,643,436,825,959, 90, 30,911,  0,418,746,648,915,886,246],
 [571,839,148,541,973,792,173,564,197,518,860,144,825,969,461,346,715, 98,471,256,862, 39,  2,379, 44,338,831,376,458,424,298,761,669,969, 90,512,602,385,517,404,377,483,234,379,620,525,823,792, 15,722],
 [833,459,890,379,256,487,771,420,913,915,346,404,753,512,747,720,934,398, 29, 22,978,935,498,288,317,515,858,713,336,726,271,704,219,440,442,589,421, 53,104, 79,564,703,387,149,452, 31,120,888,678,453]]
[930,189,278, 75,429,693,148,964,813,267,672,425,802,281,639,803,311,697,528,871, 18,771,559,120, 61,817,746,575,592,460,279,190,152,250,996, 20,  3,211,552,652,128, 92,426,678,556,548,240,993,708,643]